c Sudoku solution
p cnf 729 0
127 0
132 0
163 0
199 0
231 0
314 0
377 0
468 0
516 0
522 0
538 0
571 0
635 0
672 0
686 0
698 0
752 0
442 0
456 0
781 0
391 0
812 0
849 0
854 0
878 0
934 0
948 0
967 0
989 0
992 0
479 0
345 0
433 0
323 0
913 0
743 0
653 0
273 0
424 0
411 0
629 0
617 0
487 0
495 0
641 0
664 0
547 0
151 0
257 0
358 0
382 0
262 0
369 0
219 0
336 0
225 0
118 0
288 0
715 0
728 0
739 0
837 0
766 0
774 0
797 0
955 0
861 0
826 0
921 0
885 0
893 0
976 0
559 0
565 0
175 0
184 0
296 0
146 0
244 0
583 0
594 0
